(set-info :source  loris-7.ddns.comp.nus.edu.sg/~project/hip/) 
;Variables declarations
(declare-fun right_118_2215_primed () Int)
(declare-fun left_118_2214_primed () Int)
(declare-fun height_118_2213_primed () Int)
(declare-fun ele_118_2212_primed () Int)
(declare-fun Anon_4414 () Int)
(declare-fun resn_4424 () Int)
(declare-fun tmp2_4425 () Int)
(declare-fun resrn_4426 () Int)
(declare-fun tmp1_4423 () Int)
(declare-fun Anon_50 () Int)
(declare-fun Anon_49 () Int)
(declare-fun lr () Int)
(declare-fun q_3919 () Int)
(declare-fun ll () Int)
(declare-fun p_3915 () Int)
(declare-fun Anon_48 () Int)
(declare-fun Anon_47 () Int)
(declare-fun Anon_3914 () Int)
(declare-fun Anon_46 () Int)
(declare-fun r () Int)
(declare-fun q_3756 () Int)
(declare-fun l () Int)
(declare-fun v_node_87_3808 () Int)
(declare-fun Anon_45 () Int)
(declare-fun Anon_44 () Int)
(declare-fun b_3946 () Int)
(declare-fun Anon_3922 () Int)
(declare-fun m_3944 () Int)
(declare-fun b_3927 () Int)
(declare-fun Anon_3918 () Int)
(declare-fun m_3925 () Int)
(declare-fun b_3835 () Int)
(declare-fun Anon_3759 () Int)
(declare-fun n_3834 () Int)
(declare-fun m_3833 () Int)
(declare-fun left_87_3803 () Int)
(declare-fun resn_3797 () Int)
(declare-fun resb_3798 () Int)
(declare-fun p_3752 () Int)
(declare-fun flted_74_3796 () Int)
(declare-fun b_3774 () Int)
(declare-fun Anon_3755 () Int)
(declare-fun tn_3773 () Int)
(declare-fun tm_3772 () Int)
(declare-fun t_3988 () Int)
(declare-fun t () Int)
(declare-fun x () Int)
(declare-fun tmp_primed () Int)
(declare-fun v_bool_80_2243_primed () Int)
(declare-fun n_3750 () Int)
(declare-fun b () Int)
(declare-fun tn () Int)
(declare-fun n1_3754 () Int)
(declare-fun n2_3758 () Int)
(declare-fun tm () Int)
(declare-fun m2_3757 () Int)
(declare-fun m1_3753 () Int)
(declare-fun x_primed () Int)
(declare-fun Anon_3751 () Int)
(declare-fun v_bool_86_2211_primed () Int)
(declare-fun v_bool_89_2132_primed () Int)
(declare-fun n_3913 () Int)
(declare-fun b_3814 () Int)
(declare-fun n () Int)
(declare-fun n1_3917 () Int)
(declare-fun n2_3921 () Int)
(declare-fun m () Int)
(declare-fun m2_3920 () Int)
(declare-fun m1_3916 () Int)
(declare-fun n_3945 () Int)
(declare-fun n_3926 () Int)
(declare-fun v_bool_90_2131_primed () Int)
(declare-fun an () Int)
(declare-fun Anon_4416 () Int)
(declare-fun am () Int)
(declare-fun resl_4415 () Int)
(declare-fun resr_4417 () Int)
(declare-fun bn () Int)
(declare-fun Anon_4420 () Int)
(declare-fun bm () Int)
(declare-fun resrl_4419 () Int)
(declare-fun cn () Int)
(declare-fun Anon_4422 () Int)
(declare-fun cm () Int)
(declare-fun resrr_4421 () Int)
;Relations declarations
;Axioms assertions
;Antecedent
(assert (= right_118_2215_primed resr_4417))
(assert (= left_118_2214_primed resl_4415))
(assert (= height_118_2213_primed resn_4424))
(assert (= ele_118_2212_primed Anon_4414))
(assert (<= Anon_50 2))
(assert (<= 0 Anon_50))
(assert (<= 0 bn))
(assert (<= 0 bm))
(assert (<= Anon_49 2))
(assert (<= 0 Anon_49))
(assert (<= 0 an))
(assert (<= 0 am))
(assert (<= Anon_46 2))
(assert (<= 0 Anon_46))
(assert (<= 0 cn))
(assert (<= 0 cm))
(assert (or (and (= tmp2_4425 an) (>= an resrn_4426)) (and (= tmp2_4425 resrn_4426) (< an resrn_4426))))
(assert (= resn_4424 (+ 1 tmp2_4425)))
(assert (or (and (= tmp1_4423 cn) (>= cn bn)) (and (= tmp1_4423 bn) (< cn bn))))
(assert (= resrn_4426 (+ 1 tmp1_4423)))
(assert (> t_3988 0))
(assert (<= b_3835 2))
(assert (<= 0 b_3835))
(assert (<= 0 n_3834))
(assert (<= 0 m_3833))
(assert (> v_node_87_3808 0))
(assert (<= b_3927 2))
(assert (<= 0 b_3927))
(assert (<= 0 n_3926))
(assert (<= 0 m_3925))
(assert (<= b_3946 2))
(assert (<= 0 b_3946))
(assert (<= 0 n_3945))
(assert (<= 0 m_3944))
(assert (= Anon_50 b_3946))
(assert (= bn n_3945))
(assert (= bm m_3944))
(assert (= Anon_49 b_3927))
(assert (= an n_3926))
(assert (= am m_3925))
(assert (= lr q_3919))
(assert (= ll p_3915))
(assert (= Anon_48 n_3913))
(assert (= Anon_47 Anon_3914))
(assert (= Anon_46 b_3835))
(assert (= cn n_3834))
(assert (= cm m_3833))
(assert (= r q_3756))
(assert (= l v_node_87_3808))
(assert (= Anon_45 n_3750))
(assert (= Anon_44 Anon_3751))
(assert (<= Anon_3922 2))
(assert (<= 0 Anon_3922))
(assert (<= 0 n2_3921))
(assert (<= 0 m2_3920))
(assert (= b_3946 Anon_3922))
(assert (= n_3945 n2_3921))
(assert (= m_3944 m2_3920))
(assert (<= Anon_3918 2))
(assert (<= 0 Anon_3918))
(assert (<= 0 n1_3917))
(assert (<= 0 m1_3916))
(assert (= b_3927 Anon_3918))
(assert (= n_3926 n1_3917))
(assert (= m_3925 m1_3916))
(assert (= (+ 2 n_3834) n))
(assert (<= Anon_3759 2))
(assert (<= 0 Anon_3759))
(assert (<= 0 n2_3758))
(assert (<= 0 m2_3757))
(assert (= b_3835 Anon_3759))
(assert (= n_3834 n2_3758))
(assert (= m_3833 m2_3757))
(assert (<= b_3814 2))
(assert (<= 0 b_3814))
(assert (<= 0 n))
(assert (<= 0 m))
(assert (<= resb_3798 2))
(assert (<= 0 resb_3798))
(assert (<= 0 resn_3797))
(assert (<= 0 flted_74_3796))
(assert (= b_3814 resb_3798))
(assert (= n resn_3797))
(assert (= m flted_74_3796))
(assert (= left_87_3803 p_3752))
(assert (<= b_3774 2))
(assert (<= 0 b_3774))
(assert (<= 0 tn_3773))
(assert (<= 0 tm_3772))
(assert (or (= tn_3773 resn_3797) (and (= resn_3797 (+ 1 tn_3773)) (not (= resb_3798 1)))))
(assert (< 0 tn_3773))
(assert (< 0 tm_3772))
(assert (> p_3752 0))
(assert (= flted_74_3796 (+ 1 tm_3772)))
(assert (<= Anon_3755 2))
(assert (<= 0 Anon_3755))
(assert (<= 0 n1_3754))
(assert (<= 0 m1_3753))
(assert (= b_3774 Anon_3755))
(assert (= tn_3773 n1_3754))
(assert (= tm_3772 m1_3753))
(assert (= t_3988 t))
(assert (= x_primed x))
(assert (< tmp_primed 1))
(assert (not (> v_bool_80_2243_primed 0)))
(assert (= n_3750 tn))
(assert (= (+ b n2_3758) (+ 1 n1_3754)))
(assert (<= n1_3754 (+ 1 n2_3758)))
(assert (<= (+ 0 n2_3758) (+ n1_3754 1)))
(assert (exists ((max_79 Int)) (and (= tn (+ max_79 1)) (or (and (= max_79 n1_3754) (>= n1_3754 n2_3758)) (and (= max_79 n2_3758) (< n1_3754 n2_3758))))))
(assert (= tm (+ (+ m2_3757 1) m1_3753)))
(assert (< x_primed Anon_3751))
(assert (> v_bool_86_2211_primed 0))
(assert (> v_bool_89_2132_primed 0))
(assert (= n_3913 n))
(assert (= (+ b_3814 n2_3921) (+ 1 n1_3917)))
(assert (<= n1_3917 (+ 1 n2_3921)))
(assert (<= (+ 0 n2_3921) (+ n1_3917 1)))
(assert (exists ((max_79 Int)) (and (= n (+ max_79 1)) (or (and (= max_79 n1_3917) (>= n1_3917 n2_3921)) (and (= max_79 n2_3921) (< n1_3917 n2_3921))))))
(assert (= m (+ (+ m2_3920 1) m1_3916)))
(assert (< n_3945 n_3926))
(assert (> v_bool_90_2131_primed 0))
(assert (or (and (and (and (< resl_4415 1) (= am 0)) (= an 0)) (= Anon_4416 1)) (and (and (and (and (and (<= 0 Anon_4416) (<= (+ (- 0 an) 2) Anon_4416)) (<= Anon_4416 an)) (<= Anon_4416 2)) (<= 1 am)) (> resl_4415 0))))
(assert (= resr_4417 1))
(assert (or (and (and (and (< resrl_4419 1) (= bm 0)) (= bn 0)) (= Anon_4420 1)) (and (and (and (and (and (<= 0 Anon_4420) (<= (+ (- 0 bn) 2) Anon_4420)) (<= Anon_4420 bn)) (<= Anon_4420 2)) (<= 1 bm)) (> resrl_4419 0))))
(assert (or (and (and (and (< resrr_4421 1) (= cm 0)) (= cn 0)) (= Anon_4422 1)) (and (and (and (and (and (<= 0 Anon_4422) (<= (+ (- 0 cn) 2) Anon_4422)) (<= Anon_4422 cn)) (<= Anon_4422 2)) (<= 1 cm)) (> resrr_4421 0))))
;Negation of Consequence
(assert (not false))
(check-sat)